10981.0 1194911.0 
10994.0 1170094.0 
11050.0 1153135.0 
11110.0 1142136.0 
11087.0 1146104.0 
11051.0 1149987.0 
11162.0 1141352.0 
10975.0 1201181.0 
10983.0 1188666.0 
11020.0 1155391.0 
10993.0 1185014.0 
11106.0 1143443.0 
11007.0 1159751.0 
11221.0 1141116.0 
